<number of tasks>
50

<cycle time>
1000

<order strength>
0.598


<task times>
1 90
2 69
3 51
4 57
5 99
6 95
7 108
8 187
9 137
10 197
11 221
12 294
13 38
14 295
15 43
16 90
17 29
18 144
19 89
20 92
21 144
22 63
23 139
24 62
25 77
26 153
27 164
28 160
29 291
30 29
31 177
32 119
33 57
34 189
35 65
36 92
37 152
38 156
39 131
40 118
41 144
42 35
43 155
44 134
45 307
46 216
47 153
48 111
49 85
50 327

<precedence relations>
1,7
2,7
3,7
4,7
5,9
5,10
5,17
6,7
6,8
7,11
7,12
7,13
7,14
7,15
8,32
9,41
10,15
10,16
11,21
11,31
12,22
12,27
13,16
13,17
14,16
14,17
14,18
15,18
15,20
16,41
17,19
17,20
17,22
17,29
18,19
18,21
18,24
19,32
20,23
20,24
20,25
20,27
20,28
20,32
21,22
21,23
21,26
22,32
23,41
25,30
25,31
26,29
26,30
28,30
28,42
29,32
30,33
30,34
31,33
31,42
32,35
32,36
32,37
32,38
32,39
32,40
32,42
33,41
35,50
39,50
40,49
41,43
41,44
41,45
41,46
41,47
41,48
43,50
46,49
46,50

<end>
